164084
69,100,37,66,94,53,70,35,32,81,71,44,24,85,76,39,55,19,15,63,89,16,20,21,61,84,10,40,103,104,2,93,77,95,59,90,0,86,43,65,58,9,26,27,75,57,42,78,14,3,102,34,62,31,6,52,83,48,36,38,72,47,1,50,99,8,22,11,92,88,79,56,91,7,105,41,98,46,13,82,33,25,49,67,18,80,45,5,68,87,12,97,30,64,51,4,29,28,54,96,73,101,23,60,74,17,69